70
1 0 8
2 0 4
2 1 9
3 0 2
3 1 1
3 2 7
4 0 3
4 1 6
4 2 3
4 3 4
5 0 7
5 1 4
5 2 1
5 3 5
5 4 5
6 0 3
6 1 4
6 2 1
6 3 7
6 4 7
6 5 7
7 0 5
7 1 7
7 2 6
7 3 5
7 4 6
7 5 4
7 6 10
8 0 8
8 1 2
8 2 4
8 3 4
8 4 3
8 5 8
8 6 6
8 7 8
9 0 8
9 1 2
9 2 3
9 3 5
9 4 1
9 5 5
9 6 6
9 7 8
9 8 6
10 0 1
10 1 6
10 2 4
10 3 6
10 4 7
10 5 6
10 6 4
10 7 6
10 8 10
10 9 3
11 0 8
11 1 10
11 2 2
11 3 4
11 4 4
11 5 3
11 6 9
11 7 8
11 8 7
11 9 2
11 10 10
12 0 3
12 1 8
12 2 8
12 3 1
12 4 2
12 5 4
12 6 2
12 7 9
12 8 9
12 9 1
12 10 3
12 11 4
13 0 5
13 1 5
13 2 1
13 3 8
13 4 6
13 5 3
13 6 10
13 7 6
13 8 9
13 9 8
13 10 7
13 11 7
13 12 8
14 0 5
14 1 10
14 2 5
14 3 9
14 4 7
14 5 7
14 6 9
14 7 8
14 8 1
14 9 5
14 10 5
14 11 1
14 12 6
14 13 2
15 0 10
15 1 7
15 2 1
15 3 8
15 4 4
15 5 8
15 6 1
15 7 5
15 8 4
15 9 8
15 10 1
15 11 9
15 12 9
15 13 4
15 14 1
16 0 4
16 1 3
16 2 3
16 3 6
16 4 9
16 5 1
16 6 6
16 7 4
16 8 8
16 9 10
16 10 6
16 11 8
16 12 7
16 13 3
16 14 9
16 15 10
17 0 7
17 1 7
17 2 2
17 3 3
17 4 7
17 5 5
17 6 10
17 7 6
17 8 8
17 9 1
17 10 1
17 11 5
17 12 10
17 13 3
17 14 4
17 15 3
17 16 2
18 0 3
18 1 7
18 2 3
18 3 3
18 4 2
18 5 4
18 6 3
18 7 9
18 8 4
18 9 9
18 10 1
18 11 1
18 12 2
18 13 5
18 14 6
18 15 9
18 16 4
18 17 8
19 0 7
19 1 3
19 2 8
19 3 3
19 4 7
19 5 7
19 6 5
19 7 10
19 8 7
19 9 4
19 10 4
19 11 3
19 12 1
19 13 5
19 14 10
19 15 8
19 16 5
19 17 8
19 18 7
20 0 8
20 1 7
20 2 10
20 3 4
20 4 7
20 5 6
20 6 5
20 7 7
20 8 2
20 9 1
20 10 9
20 11 7
20 12 9
20 13 10
20 14 6
20 15 9
20 16 7
20 17 9
20 18 1
20 19 3
21 0 7
21 1 7
21 2 8
21 3 5
21 4 1
21 5 10
21 6 6
21 7 9
21 8 8
21 9 3
21 10 10
21 11 5
21 12 7
21 13 6
21 14 7
21 15 7
21 16 1
21 17 1
21 18 7
21 19 5
21 20 2
22 0 10
22 1 6
22 2 9
22 3 10
22 4 1
22 5 3
22 6 9
22 7 8
22 8 2
22 9 7
22 10 3
22 11 6
22 12 6
22 13 1
22 14 9
22 15 3
22 16 8
22 17 4
22 18 8
22 19 3
22 20 8
22 21 9
23 0 10
23 1 7
23 2 4
23 3 4
23 4 1
23 5 10
23 6 10
23 7 1
23 8 4
23 9 10
23 10 4
23 11 1
23 12 1
23 13 3
23 14 1
23 15 6
23 16 3
23 17 4
23 18 9
23 19 10
23 20 10
23 21 7
23 22 4
24 0 6
24 1 3
24 2 1
24 3 7
24 4 3
24 5 7
24 6 2
24 7 2
24 8 2
24 9 3
24 10 7
24 11 10
24 12 3
24 13 6
24 14 2
24 15 2
24 16 8
24 17 10
24 18 6
24 19 9
24 20 1
24 21 6
24 22 9
24 23 5
25 0 1
25 1 9
25 2 1
25 3 3
25 4 1
25 5 8
25 6 1
25 7 9
25 8 5
25 9 3
25 10 8
25 11 10
25 12 9
25 13 2
25 14 8
25 15 4
25 16 6
25 17 8
25 18 10
25 19 6
25 20 3
25 21 2
25 22 1
25 23 1
25 24 7
26 0 6
26 1 4
26 2 3
26 3 6
26 4 1
26 5 7
26 6 9
26 7 8
26 8 2
26 9 4
26 10 7
26 11 7
26 12 9
26 13 10
26 14 4
26 15 4
26 16 7
26 17 2
26 18 3
26 19 5
26 20 2
26 21 3
26 22 4
26 23 5
26 24 3
26 25 3
27 0 4
27 1 6
27 2 6
27 3 10
27 4 7
27 5 10
27 6 5
27 7 9
27 8 2
27 9 9
27 10 7
27 11 9
27 12 6
27 13 8
27 14 3
27 15 4
27 16 5
27 17 10
27 18 9
27 19 8
27 20 3
27 21 6
27 22 1
27 23 1
27 24 10
27 25 1
27 26 3
28 0 1
28 1 6
28 2 2
28 3 8
28 4 1
28 5 2
28 6 1
28 7 7
28 8 3
28 9 10
28 10 5
28 11 2
28 12 8
28 13 10
28 14 6
28 15 4
28 16 4
28 17 2
28 18 6
28 19 1
28 20 1
28 21 7
28 22 5
28 23 2
28 24 8
28 25 8
28 26 4
28 27 9
29 0 6
29 1 7
29 2 3
29 3 5
29 4 5
29 5 2
29 6 3
29 7 8
29 8 4
29 9 4
29 10 6
29 11 7
29 12 2
29 13 5
29 14 3
29 15 2
29 16 8
29 17 6
29 18 10
29 19 6
29 20 4
29 21 8
29 22 5
29 23 2
29 24 4
29 25 4
29 26 2
29 27 2
29 28 4
30 0 2
30 1 9
30 2 4
30 3 5
30 4 5
30 5 2
30 6 8
30 7 9
30 8 10
30 9 2
30 10 3
30 11 9
30 12 5
30 13 9
30 14 8
30 15 9
30 16 5
30 17 6
30 18 10
30 19 6
30 20 4
30 21 8
30 22 4
30 23 6
30 24 5
30 25 8
30 26 2
30 27 4
30 28 8
30 29 1
31 0 2
31 1 5
31 2 7
31 3 8
31 4 3
31 5 7
31 6 7
31 7 5
31 8 7
31 9 9
31 10 8
31 11 5
31 12 9
31 13 2
31 14 10
31 15 2
31 16 4
31 17 2
31 18 7
31 19 8
31 20 8
31 21 7
31 22 5
31 23 2
31 24 1
31 25 7
31 26 7
31 27 9
31 28 3
31 29 8
31 30 2
32 0 3
32 1 2
32 2 7
32 3 10
32 4 5
32 5 9
32 6 10
32 7 7
32 8 10
32 9 5
32 10 3
32 11 4
32 12 3
32 13 6
32 14 7
32 15 10
32 16 2
32 17 6
32 18 6
32 19 5
32 20 5
32 21 7
32 22 5
32 23 1
32 24 5
32 25 3
32 26 7
32 27 7
32 28 8
32 29 3
32 30 2
32 31 10
33 0 1
33 1 7
33 2 5
33 3 5
33 4 8
33 5 1
33 6 7
33 7 1
33 8 8
33 9 8
33 10 3
33 11 2
33 12 8
33 13 4
33 14 6
33 15 1
33 16 3
33 17 6
33 18 3
33 19 1
33 20 1
33 21 3
33 22 9
33 23 8
33 24 5
33 25 8
33 26 4
33 27 10
33 28 10
33 29 4
33 30 7
33 31 2
33 32 5
34 0 10
34 1 5
34 2 3
34 3 10
34 4 9
34 5 8
34 6 5
34 7 3
34 8 7
34 9 5
34 10 1
34 11 3
34 12 1
34 13 6
34 14 9
34 15 1
34 16 2
34 17 8
34 18 7
34 19 8
34 20 8
34 21 4
34 22 5
34 23 6
34 24 6
34 25 8
34 26 5
34 27 10
34 28 4
34 29 1
34 30 9
34 31 6
34 32 6
34 33 2
35 0 8
35 1 6
35 2 9
35 3 8
35 4 10
35 5 9
35 6 6
35 7 10
35 8 9
35 9 3
35 10 9
35 11 8
35 12 1
35 13 6
35 14 10
35 15 9
35 16 9
35 17 8
35 18 8
35 19 10
35 20 9
35 21 8
35 22 7
35 23 6
35 24 4
35 25 4
35 26 2
35 27 6
35 28 6
35 29 9
35 30 6
35 31 9
35 32 7
35 33 4
35 34 4
36 0 8
36 1 10
36 2 7
36 3 3
36 4 2
36 5 6
36 6 2
36 7 6
36 8 10
36 9 10
36 10 8
36 11 9
36 12 8
36 13 9
36 14 8
36 15 5
36 16 2
36 17 9
36 18 5
36 19 9
36 20 2
36 21 1
36 22 5
36 23 1
36 24 7
36 25 5
36 26 8
36 27 2
36 28 5
36 29 2
36 30 4
36 31 2
36 32 10
36 33 1
36 34 10
36 35 2
37 0 6
37 1 7
37 2 1
37 3 6
37 4 1
37 5 1
37 6 10
37 7 7
37 8 10
37 9 6
37 10 1
37 11 10
37 12 6
37 13 10
37 14 4
37 15 8
37 16 9
37 17 8
37 18 8
37 19 4
37 20 3
37 21 2
37 22 10
37 23 9
37 24 8
37 25 5
37 26 4
37 27 8
37 28 10
37 29 10
37 30 8
37 31 3
37 32 10
37 33 8
37 34 10
37 35 2
37 36 2
38 0 10
38 1 5
38 2 10
38 3 7
38 4 8
38 5 5
38 6 1
38 7 2
38 8 10
38 9 3
38 10 10
38 11 2
38 12 10
38 13 8
38 14 5
38 15 2
38 16 10
38 17 10
38 18 10
38 19 9
38 20 8
38 21 4
38 22 7
38 23 5
38 24 4
38 25 5
38 26 1
38 27 8
38 28 9
38 29 5
38 30 5
38 31 6
38 32 6
38 33 2
38 34 3
38 35 5
38 36 2
38 37 2
39 0 10
39 1 9
39 2 9
39 3 4
39 4 5
39 5 4
39 6 9
39 7 5
39 8 8
39 9 6
39 10 10
39 11 3
39 12 2
39 13 5
39 14 5
39 15 1
39 16 2
39 17 3
39 18 8
39 19 5
39 20 3
39 21 10
39 22 8
39 23 10
39 24 1
39 25 6
39 26 8
39 27 1
39 28 7
39 29 6
39 30 10
39 31 7
39 32 5
39 33 7
39 34 6
39 35 7
39 36 8
39 37 10
39 38 7
40 0 6
40 1 3
40 2 6
40 3 1
40 4 9
40 5 8
40 6 5
40 7 7
40 8 10
40 9 2
40 10 1
40 11 8
40 12 4
40 13 10
40 14 6
40 15 6
40 16 10
40 17 2
40 18 6
40 19 2
40 20 9
40 21 10
40 22 3
40 23 2
40 24 6
40 25 10
40 26 6
40 27 4
40 28 1
40 29 1
40 30 7
40 31 8
40 32 10
40 33 10
40 34 10
40 35 8
40 36 9
40 37 1
40 38 3
40 39 4
41 0 3
41 1 3
41 2 4
41 3 2
41 4 2
41 5 4
41 6 2
41 7 1
41 8 6
41 9 7
41 10 6
41 11 4
41 12 8
41 13 4
41 14 2
41 15 1
41 16 9
41 17 8
41 18 3
41 19 2
41 20 7
41 21 7
41 22 7
41 23 9
41 24 2
41 25 3
41 26 7
41 27 9
41 28 4
41 29 8
41 30 1
41 31 2
41 32 5
41 33 6
41 34 7
41 35 1
41 36 5
41 37 6
41 38 3
41 39 10
41 40 1
42 0 3
42 1 4
42 2 6
42 3 7
42 4 5
42 5 10
42 6 5
42 7 3
42 8 7
42 9 2
42 10 9
42 11 9
42 12 2
42 13 10
42 14 5
42 15 6
42 16 5
42 17 2
42 18 1
42 19 5
42 20 6
42 21 7
42 22 5
42 23 10
42 24 5
42 25 1
42 26 5
42 27 7
42 28 8
42 29 5
42 30 6
42 31 3
42 32 6
42 33 8
42 34 8
42 35 6
42 36 4
42 37 5
42 38 6
42 39 5
42 40 5
42 41 6
43 0 9
43 1 2
43 2 5
43 3 6
43 4 10
43 5 2
43 6 1
43 7 4
43 8 8
43 9 3
43 10 4
43 11 1
43 12 9
43 13 1
43 14 9
43 15 1
43 16 3
43 17 5
43 18 2
43 19 4
43 20 9
43 21 6
43 22 8
43 23 6
43 24 4
43 25 3
43 26 1
43 27 2
43 28 6
43 29 2
43 30 2
43 31 1
43 32 6
43 33 3
43 34 5
43 35 6
43 36 9
43 37 5
43 38 2
43 39 9
43 40 4
43 41 7
43 42 7
44 0 1
44 1 7
44 2 9
44 3 7
44 4 9
44 5 4
44 6 8
44 7 5
44 8 3
44 9 3
44 10 7
44 11 8
44 12 5
44 13 4
44 14 5
44 15 10
44 16 9
44 17 9
44 18 7
44 19 3
44 20 7
44 21 6
44 22 6
44 23 1
44 24 9
44 25 1
44 26 5
44 27 8
44 28 9
44 29 7
44 30 1
44 31 2
44 32 4
44 33 4
44 34 3
44 35 1
44 36 1
44 37 2
44 38 1
44 39 3
44 40 4
44 41 9
44 42 4
44 43 7
45 0 4
45 1 9
45 2 1
45 3 5
45 4 4
45 5 1
45 6 8
45 7 8
45 8 9
45 9 3
45 10 8
45 11 10
45 12 8
45 13 4
45 14 6
45 15 5
45 16 6
45 17 2
45 18 6
45 19 10
45 20 2
45 21 8
45 22 4
45 23 2
45 24 5
45 25 1
45 26 10
45 27 6
45 28 7
45 29 7
45 30 9
45 31 3
45 32 6
45 33 6
45 34 3
45 35 8
45 36 10
45 37 5
45 38 2
45 39 7
45 40 5
45 41 1
45 42 9
45 43 8
45 44 6
46 0 7
46 1 5
46 2 6
46 3 6
46 4 8
46 5 10
46 6 2
46 7 6
46 8 7
46 9 3
46 10 3
46 11 2
46 12 8
46 13 6
46 14 2
46 15 5
46 16 4
46 17 3
46 18 6
46 19 5
46 20 9
46 21 9
46 22 1
46 23 7
46 24 3
46 25 8
46 26 2
46 27 4
46 28 10
46 29 10
46 30 6
46 31 10
46 32 10
46 33 1
46 34 9
46 35 6
46 36 7
46 37 3
46 38 10
46 39 9
46 40 1
46 41 10
46 42 3
46 43 3
46 44 6
46 45 9
47 0 8
47 1 8
47 2 6
47 3 6
47 4 5
47 5 5
47 6 8
47 7 9
47 8 3
47 9 9
47 10 5
47 11 8
47 12 8
47 13 4
47 14 8
47 15 5
47 16 5
47 17 1
47 18 9
47 19 1
47 20 6
47 21 5
47 22 6
47 23 8
47 24 6
47 25 10
47 26 9
47 27 5
47 28 10
47 29 1
47 30 1
47 31 3
47 32 10
47 33 8
47 34 9
47 35 9
47 36 6
47 37 3
47 38 9
47 39 9
47 40 8
47 41 4
47 42 8
47 43 10
47 44 7
47 45 6
47 46 7
48 0 6
48 1 7
48 2 4
48 3 10
48 4 7
48 5 1
48 6 10
48 7 1
48 8 3
48 9 1
48 10 9
48 11 8
48 12 2
48 13 6
48 14 8
48 15 2
48 16 6
48 17 1
48 18 2
48 19 9
48 20 10
48 21 10
48 22 1
48 23 8
48 24 3
48 25 8
48 26 10
48 27 5
48 28 9
48 29 9
48 30 8
48 31 8
48 32 6
48 33 10
48 34 5
48 35 4
48 36 4
48 37 2
48 38 6
48 39 1
48 40 4
48 41 1
48 42 3
48 43 3
48 44 4
48 45 3
48 46 3
48 47 8
49 0 1
49 1 9
49 2 8
49 3 3
49 4 10
49 5 10
49 6 4
49 7 8
49 8 8
49 9 8
49 10 3
49 11 10
49 12 6
49 13 4
49 14 5
49 15 1
49 16 5
49 17 5
49 18 3
49 19 8
49 20 1
49 21 6
49 22 7
49 23 4
49 24 9
49 25 3
49 26 3
49 27 5
49 28 7
49 29 4
49 30 3
49 31 5
49 32 3
49 33 10
49 34 4
49 35 2
49 36 4
49 37 6
49 38 10
49 39 2
49 40 1
49 41 10
49 42 3
49 43 5
49 44 7
49 45 9
49 46 2
49 47 3
49 48 9
50 0 6
50 1 8
50 2 5
50 3 1
50 4 2
50 5 4
50 6 7
50 7 7
50 8 5
50 9 9
50 10 3
50 11 3
50 12 9
50 13 2
50 14 1
50 15 9
50 16 10
50 17 10
50 18 6
50 19 6
50 20 5
50 21 5
50 22 5
50 23 8
50 24 3
50 25 5
50 26 1
50 27 10
50 28 3
50 29 7
50 30 9
50 31 4
50 32 7
50 33 9
50 34 9
50 35 2
50 36 7
50 37 3
50 38 4
50 39 3
50 40 4
50 41 2
50 42 7
50 43 7
50 44 6
50 45 10
50 46 9
50 47 7
50 48 2
50 49 5
51 0 1
51 1 2
51 2 1
51 3 1
51 4 1
51 5 1
51 6 4
51 7 9
51 8 7
51 9 1
51 10 6
51 11 5
51 12 8
51 13 7
51 14 3
51 15 3
51 16 9
51 17 10
51 18 9
51 19 4
51 20 10
51 21 1
51 22 8
51 23 10
51 24 6
51 25 7
51 26 2
51 27 1
51 28 7
51 29 5
51 30 10
51 31 5
51 32 6
51 33 8
51 34 5
51 35 4
51 36 4
51 37 4
51 38 6
51 39 6
51 40 4
51 41 1
51 42 5
51 43 3
51 44 9
51 45 3
51 46 9
51 47 6
51 48 6
51 49 3
51 50 10
52 0 4
52 1 1
52 2 1
52 3 10
52 4 9
52 5 7
52 6 2
52 7 8
52 8 3
52 9 3
52 10 10
52 11 1
52 12 4
52 13 6
52 14 9
52 15 10
52 16 2
52 17 4
52 18 1
52 19 6
52 20 2
52 21 2
52 22 9
52 23 6
52 24 5
52 25 9
52 26 9
52 27 8
52 28 10
52 29 1
52 30 5
52 31 2
52 32 10
52 33 2
52 34 10
52 35 4
52 36 1
52 37 1
52 38 1
52 39 9
52 40 5
52 41 7
52 42 5
52 43 10
52 44 3
52 45 8
52 46 7
52 47 4
52 48 7
52 49 3
52 50 8
52 51 8
53 0 2
53 1 2
53 2 7
53 3 4
53 4 4
53 5 4
53 6 4
53 7 10
53 8 5
53 9 5
53 10 1
53 11 9
53 12 2
53 13 10
53 14 9
53 15 7
53 16 6
53 17 1
53 18 4
53 19 9
53 20 1
53 21 9
53 22 3
53 23 5
53 24 8
53 25 1
53 26 3
53 27 6
53 28 2
53 29 3
53 30 8
53 31 4
53 32 2
53 33 1
53 34 5
53 35 6
53 36 6
53 37 7
53 38 9
53 39 3
53 40 2
53 41 10
53 42 5
53 43 4
53 44 2
53 45 8
53 46 2
53 47 2
53 48 6
53 49 10
53 50 9
53 51 9
53 52 4
54 0 10
54 1 1
54 2 7
54 3 9
54 4 6
54 5 10
54 6 9
54 7 2
54 8 8
54 9 4
54 10 3
54 11 8
54 12 5
54 13 3
54 14 8
54 15 6
54 16 8
54 17 6
54 18 10
54 19 9
54 20 2
54 21 6
54 22 9
54 23 10
54 24 8
54 25 8
54 26 5
54 27 9
54 28 6
54 29 2
54 30 7
54 31 6
54 32 6
54 33 4
54 34 2
54 35 10
54 36 2
54 37 1
54 38 5
54 39 10
54 40 2
54 41 7
54 42 3
54 43 2
54 44 3
54 45 3
54 46 8
54 47 9
54 48 3
54 49 8
54 50 8
54 51 7
54 52 1
54 53 1
55 0 2
55 1 8
55 2 6
55 3 6
55 4 9
55 5 3
55 6 3
55 7 6
55 8 9
55 9 1
55 10 4
55 11 7
55 12 7
55 13 9
55 14 1
55 15 10
55 16 8
55 17 9
55 18 4
55 19 2
55 20 3
55 21 7
55 22 5
55 23 2
55 24 10
55 25 10
55 26 10
55 27 3
55 28 10
55 29 9
55 30 5
55 31 4
55 32 2
55 33 5
55 34 7
55 35 7
55 36 5
55 37 3
55 38 5
55 39 10
55 40 4
55 41 7
55 42 7
55 43 2
55 44 10
55 45 3
55 46 10
55 47 4
55 48 8
55 49 8
55 50 4
55 51 4
55 52 1
55 53 8
55 54 8
56 0 3
56 1 6
56 2 10
56 3 4
56 4 1
56 5 1
56 6 9
56 7 5
56 8 8
56 9 9
56 10 6
56 11 9
56 12 2
56 13 9
56 14 8
56 15 6
56 16 8
56 17 9
56 18 4
56 19 1
56 20 3
56 21 7
56 22 1
56 23 5
56 24 5
56 25 5
56 26 6
56 27 7
56 28 8
56 29 4
56 30 10
56 31 1
56 32 3
56 33 4
56 34 7
56 35 9
56 36 6
56 37 5
56 38 10
56 39 10
56 40 3
56 41 2
56 42 6
56 43 3
56 44 1
56 45 5
56 46 4
56 47 5
56 48 7
56 49 10
56 50 4
56 51 10
56 52 2
56 53 6
56 54 4
56 55 7
57 0 3
57 1 5
57 2 5
57 3 5
57 4 5
57 5 6
57 6 10
57 7 5
57 8 4
57 9 9
57 10 5
57 11 5
57 12 1
57 13 3
57 14 7
57 15 9
57 16 6
57 17 1
57 18 1
57 19 2
57 20 3
57 21 8
57 22 1
57 23 5
57 24 10
57 25 10
57 26 6
57 27 10
57 28 7
57 29 1
57 30 8
57 31 5
57 32 1
57 33 1
57 34 3
57 35 3
57 36 9
57 37 7
57 38 9
57 39 4
57 40 7
57 41 8
57 42 2
57 43 8
57 44 1
57 45 10
57 46 1
57 47 6
57 48 6
57 49 3
57 50 5
57 51 5
57 52 4
57 53 10
57 54 2
57 55 3
57 56 8
58 0 9
58 1 4
58 2 9
58 3 10
58 4 4
58 5 9
58 6 9
58 7 1
58 8 10
58 9 3
58 10 2
58 11 5
58 12 5
58 13 2
58 14 2
58 15 10
58 16 6
58 17 3
58 18 8
58 19 6
58 20 4
58 21 2
58 22 4
58 23 8
58 24 1
58 25 4
58 26 7
58 27 6
58 28 4
58 29 1
58 30 9
58 31 7
58 32 3
58 33 4
58 34 9
58 35 6
58 36 4
58 37 1
58 38 7
58 39 2
58 40 4
58 41 10
58 42 3
58 43 9
58 44 10
58 45 3
58 46 2
58 47 7
58 48 6
58 49 10
58 50 10
58 51 10
58 52 1
58 53 6
58 54 2
58 55 10
58 56 7
58 57 8
59 0 6
59 1 6
59 2 4
59 3 4
59 4 3
59 5 1
59 6 3
59 7 6
59 8 1
59 9 6
59 10 2
59 11 3
59 12 6
59 13 2
59 14 8
59 15 2
59 16 3
59 17 8
59 18 6
59 19 10
59 20 6
59 21 6
59 22 6
59 23 3
59 24 3
59 25 9
59 26 2
59 27 4
59 28 10
59 29 2
59 30 6
59 31 7
59 32 6
59 33 6
59 34 7
59 35 9
59 36 7
59 37 6
59 38 1
59 39 9
59 40 9
59 41 7
59 42 8
59 43 8
59 44 7
59 45 6
59 46 10
59 47 7
59 48 6
59 49 7
59 50 3
59 51 9
59 52 5
59 53 10
59 54 3
59 55 10
59 56 5
59 57 10
59 58 6
60 0 4
60 1 7
60 2 5
60 3 7
60 4 4
60 5 4
60 6 3
60 7 9
60 8 2
60 9 4
60 10 3
60 11 7
60 12 5
60 13 2
60 14 3
60 15 1
60 16 5
60 17 10
60 18 2
60 19 8
60 20 6
60 21 8
60 22 9
60 23 9
60 24 6
60 25 5
60 26 4
60 27 5
60 28 9
60 29 7
60 30 10
60 31 7
60 32 5
60 33 9
60 34 10
60 35 6
60 36 9
60 37 8
60 38 5
60 39 3
60 40 7
60 41 3
60 42 2
60 43 8
60 44 6
60 45 10
60 46 2
60 47 5
60 48 6
60 49 7
60 50 7
60 51 2
60 52 7
60 53 4
60 54 5
60 55 6
60 56 4
60 57 8
60 58 4
60 59 8
61 0 8
61 1 2
61 2 7
61 3 5
61 4 1
61 5 10
61 6 7
61 7 6
61 8 4
61 9 7
61 10 1
61 11 2
61 12 7
61 13 3
61 14 1
61 15 5
61 16 9
61 17 8
61 18 8
61 19 6
61 20 4
61 21 6
61 22 8
61 23 9
61 24 6
61 25 7
61 26 2
61 27 3
61 28 4
61 29 4
61 30 1
61 31 7
61 32 4
61 33 7
61 34 5
61 35 1
61 36 5
61 37 1
61 38 6
61 39 7
61 40 7
61 41 3
61 42 2
61 43 7
61 44 10
61 45 9
61 46 2
61 47 7
61 48 4
61 49 1
61 50 5
61 51 9
61 52 6
61 53 8
61 54 8
61 55 9
61 56 10
61 57 8
61 58 1
61 59 1
61 60 3
62 0 3
62 1 2
62 2 3
62 3 9
62 4 3
62 5 7
62 6 10
62 7 4
62 8 4
62 9 3
62 10 6
62 11 3
62 12 4
62 13 10
62 14 3
62 15 1
62 16 3
62 17 2
62 18 5
62 19 3
62 20 4
62 21 1
62 22 8
62 23 6
62 24 4
62 25 9
62 26 5
62 27 8
62 28 3
62 29 9
62 30 6
62 31 3
62 32 10
62 33 5
62 34 5
62 35 2
62 36 4
62 37 3
62 38 9
62 39 3
62 40 10
62 41 10
62 42 1
62 43 5
62 44 8
62 45 2
62 46 10
62 47 9
62 48 3
62 49 2
62 50 5
62 51 7
62 52 2
62 53 4
62 54 8
62 55 1
62 56 9
62 57 7
62 58 9
62 59 8
62 60 4
62 61 6
63 0 6
63 1 10
63 2 2
63 3 6
63 4 4
63 5 1
63 6 4
63 7 9
63 8 4
63 9 8
63 10 10
63 11 7
63 12 8
63 13 9
63 14 9
63 15 8
63 16 4
63 17 7
63 18 7
63 19 6
63 20 3
63 21 1
63 22 9
63 23 5
63 24 10
63 25 3
63 26 6
63 27 5
63 28 9
63 29 3
63 30 9
63 31 4
63 32 9
63 33 4
63 34 8
63 35 10
63 36 10
63 37 3
63 38 9
63 39 4
63 40 3
63 41 10
63 42 8
63 43 5
63 44 3
63 45 7
63 46 10
63 47 1
63 48 4
63 49 3
63 50 1
63 51 9
63 52 9
63 53 4
63 54 4
63 55 1
63 56 3
63 57 6
63 58 8
63 59 7
63 60 7
63 61 6
63 62 5
64 0 7
64 1 5
64 2 6
64 3 5
64 4 5
64 5 2
64 6 2
64 7 3
64 8 1
64 9 2
64 10 1
64 11 9
64 12 3
64 13 5
64 14 2
64 15 8
64 16 1
64 17 1
64 18 2
64 19 1
64 20 8
64 21 9
64 22 7
64 23 5
64 24 8
64 25 10
64 26 7
64 27 6
64 28 6
64 29 8
64 30 6
64 31 9
64 32 9
64 33 2
64 34 2
64 35 3
64 36 8
64 37 4
64 38 4
64 39 9
64 40 8
64 41 4
64 42 7
64 43 10
64 44 9
64 45 3
64 46 3
64 47 4
64 48 5
64 49 5
64 50 5
64 51 4
64 52 10
64 53 4
64 54 6
64 55 5
64 56 10
64 57 1
64 58 10
64 59 10
64 60 1
64 61 3
64 62 5
64 63 1
65 0 5
65 1 6
65 2 4
65 3 6
65 4 8
65 5 9
65 6 6
65 7 9
65 8 4
65 9 9
65 10 8
65 11 5
65 12 5
65 13 8
65 14 6
65 15 3
65 16 2
65 17 2
65 18 1
65 19 9
65 20 9
65 21 10
65 22 5
65 23 2
65 24 9
65 25 10
65 26 4
65 27 4
65 28 8
65 29 2
65 30 2
65 31 9
65 32 7
65 33 4
65 34 7
65 35 8
65 36 10
65 37 3
65 38 6
65 39 10
65 40 6
65 41 6
65 42 2
65 43 8
65 44 2
65 45 6
65 46 2
65 47 5
65 48 6
65 49 1
65 50 7
65 51 4
65 52 1
65 53 1
65 54 10
65 55 6
65 56 9
65 57 2
65 58 2
65 59 8
65 60 6
65 61 8
65 62 9
65 63 7
65 64 5
66 0 5
66 1 3
66 2 10
66 3 8
66 4 1
66 5 3
66 6 5
66 7 6
66 8 5
66 9 7
66 10 1
66 11 3
66 12 7
66 13 8
66 14 8
66 15 1
66 16 6
66 17 1
66 18 4
66 19 5
66 20 8
66 21 7
66 22 3
66 23 1
66 24 6
66 25 10
66 26 10
66 27 3
66 28 3
66 29 7
66 30 8
66 31 8
66 32 8
66 33 2
66 34 8
66 35 2
66 36 7
66 37 3
66 38 4
66 39 1
66 40 3
66 41 6
66 42 1
66 43 10
66 44 3
66 45 2
66 46 4
66 47 4
66 48 4
66 49 5
66 50 5
66 51 10
66 52 8
66 53 8
66 54 8
66 55 10
66 56 3
66 57 5
66 58 6
66 59 6
66 60 8
66 61 3
66 62 4
66 63 9
66 64 2
66 65 1
67 0 1
67 1 9
67 2 9
67 3 10
67 4 8
67 5 10
67 6 8
67 7 2
67 8 1
67 9 1
67 10 4
67 11 7
67 12 2
67 13 3
67 14 1
67 15 10
67 16 4
67 17 7
67 18 2
67 19 4
67 20 8
67 21 2
67 22 10
67 23 8
67 24 9
67 25 7
67 26 3
67 27 4
67 28 3
67 29 5
67 30 3
67 31 2
67 32 5
67 33 9
67 34 9
67 35 8
67 36 3
67 37 5
67 38 3
67 39 9
67 40 10
67 41 2
67 42 6
67 43 7
67 44 5
67 45 4
67 46 7
67 47 1
67 48 1
67 49 5
67 50 6
67 51 3
67 52 9
67 53 6
67 54 8
67 55 5
67 56 2
67 57 10
67 58 5
67 59 2
67 60 10
67 61 10
67 62 10
67 63 4
67 64 6
67 65 10
67 66 7
68 0 2
68 1 5
68 2 7
68 3 9
68 4 10
68 5 10
68 6 6
68 7 9
68 8 7
68 9 7
68 10 2
68 11 10
68 12 7
68 13 5
68 14 2
68 15 7
68 16 8
68 17 9
68 18 1
68 19 4
68 20 7
68 21 9
68 22 9
68 23 8
68 24 3
68 25 4
68 26 8
68 27 3
68 28 8
68 29 2
68 30 6
68 31 4
68 32 7
68 33 3
68 34 2
68 35 2
68 36 10
68 37 7
68 38 10
68 39 6
68 40 10
68 41 6
68 42 1
68 43 8
68 44 3
68 45 1
68 46 2
68 47 7
68 48 6
68 49 1
68 50 7
68 51 4
68 52 8
68 53 4
68 54 6
68 55 1
68 56 10
68 57 10
68 58 8
68 59 1
68 60 10
68 61 4
68 62 10
68 63 1
68 64 9
68 65 5
68 66 10
68 67 2
69 0 6
69 1 5
69 2 7
69 3 3
69 4 2
69 5 10
69 6 10
69 7 5
69 8 4
69 9 7
69 10 10
69 11 4
69 12 9
69 13 6
69 14 1
69 15 7
69 16 4
69 17 2
69 18 6
69 19 7
69 20 8
69 21 3
69 22 8
69 23 7
69 24 4
69 25 1
69 26 2
69 27 4
69 28 9
69 29 10
69 30 5
69 31 3
69 32 8
69 33 4
69 34 2
69 35 7
69 36 2
69 37 9
69 38 4
69 39 6
69 40 8
69 41 4
69 42 1
69 43 2
69 44 10
69 45 3
69 46 2
69 47 4
69 48 5
69 49 10
69 50 8
69 51 4
69 52 4
69 53 3
69 54 7
69 55 10
69 56 1
69 57 1
69 58 4
69 59 1
69 60 9
69 61 3
69 62 3
69 63 1
69 64 8
69 65 10
69 66 3
69 67 6
69 68 1
